; benchmark generated from python API
(set-info :status unknown)
(declare-datatypes ((IntState 0)) (((Mk1 (val1 Int)) (Mk2 (val2 Int)))))
 (declare-fun |c_hanoi_#res| () Int)
(declare-fun |c_hanoi_#in~n| () Int)
(declare-fun c_hanoi_~n () Int)
(assert
 (let (($x74 (exists ((|v_hanoi_#t~ret0_13_st| IntState) (val!56 Int) )(exists ((v_nnf_32_st IntState) (val!57 Int) )(exists ((v_nnf_33_st IntState) (val!58 Int) )(let (($x155 (<= |c_hanoi_#in~n| 4)))
 (let (($x118 (and $x155 (<= 1 (val2 v_nnf_32_st)) (<= (+ (* 2 (val2 v_nnf_32_st)) 1) (val2 v_nnf_33_st)) (<= (+ (* 2 (val2 v_nnf_33_st)) 1) (val2 |v_hanoi_#t~ret0_13_st|)) (<= (+ (* 2 (val2 |v_hanoi_#t~ret0_13_st|)) 1) |c_hanoi_#res|))))
 (let (($x52 (not (= v_nnf_33_st (Mk1 val!58)))))
 (let (($x141 (not (= v_nnf_32_st (Mk1 val!57)))))
 (let (($x143 (not (= |v_hanoi_#t~ret0_13_st| (Mk1 val!56)))))
 (and $x143 $x141 $x52 $x118)))))))
 )
 )
 ))
 (let (($x134 (<= |c_hanoi_#in~n| c_hanoi_~n)))
 (let (($x112 (exists ((|v_hanoi_#t~ret0_13| Int) )(exists ((v_nnf_32 Int) )(exists ((v_nnf_33 Int) )(let (($x155 (<= |c_hanoi_#in~n| 4)))
 (and $x155 (<= 1 v_nnf_32) (<= (+ (* 2 v_nnf_32) 1) v_nnf_33) (<= (+ (* 2 v_nnf_33) 1) |v_hanoi_#t~ret0_13|) (<= (+ (* 2 |v_hanoi_#t~ret0_13|) 1) |c_hanoi_#res|))))
 )
 )
 ))
 (and (and $x112 $x134) (not $x74))))))
(check-sat)
